\ Model Staff Scheduling Problem with Overtime Constraints
\ LP format - for model browsing. Use MPS format to capture full model detail.
Minimize
  2.581479968641298 x[0,0] + 82.4525360845288 x[0,1]
   + 57.57369887458859 x[0,2] + 80.31489718995647 x[0,3]
   + 61.27058678031851 x[0,4] + 88.45845505085698 x[1,0]
   + 17.24660021794823 x[1,1] + 57.68076711784013 x[1,2]
   + 63.26844986069417 x[1,3] + 50.49089275469905 x[1,4]
   + 81.64560851544269 x[2,0] + 35.50220035347714 x[2,1]
   + 57.77786670542715 x[2,2] + 9.097313683742222 x[2,3]
   + 20.92070999859251 x[2,4] + 96.84145236905368 x[3,0]
   + 56.01348710828683 x[3,1] + 30.17232523560332 x[3,2]
   + 44.88473773753449 x[3,3] + 70.49949064733268 x[3,4]
   + 28.1931523397994 x[4,0] + 10.02053331782136 x[4,1]
   + 90.30990373027257 x[4,2] + 66.20267071987386 x[4,3]
   + 13.68682463044994 x[4,4] + 50.33382363555269 x[5,0]
   + 82.00722624219648 x[5,1] + 66.21802492427139 x[5,2]
   + 47.26358653880924 x[5,3] + 15.02172076231633 x[5,4]
   + 25.73432064583598 x[6,0] + 40.41410394861371 x[6,1]
   + 90.84607495554523 x[6,2] + 73.430840008079 x[6,3]
   + 74.19318130611256 x[6,4] + 11.68616979916582 x[7,0]
   + 58.62711696680863 x[7,1] + 41.38370406613308 x[7,2]
   + 18.40380783051506 x[7,3] + 7.587720772503221 x[7,4]
   + 95.26519412443739 x[8,0] + 94.96738333859275 x[8,1]
   + 15.76640938191552 x[8,2] + 32.31018058414549 x[8,3]
   + 36.85872338763848 x[8,4] + 95.10094050897551 x[9,0]
   + 37.22203585486797 x[9,1] + 82.99338269681458 x[9,2]
   + 55.96057342789693 x[9,3] + 8.562293063797371 x[9,4]
Subject To
 task_0_shift_0: x[0,0] >= 1
 task_0_shift_1: x[0,1] >= 1
 task_0_shift_2: x[0,2] >= 1
 task_0_shift_3: x[0,3] >= 1
 task_0_shift_4: x[0,4] >= 1
 task_1_shift_0: x[1,0] >= 1
 task_1_shift_1: x[1,1] >= 1
 task_1_shift_2: x[1,2] >= 1
 task_1_shift_3: x[1,3] >= 1
 task_1_shift_4: x[1,4] >= 1
 task_2_shift_0: x[2,0] >= 1
 task_2_shift_1: x[2,1] >= 1
 task_2_shift_2: x[2,2] >= 1
 task_2_shift_3: x[2,3] >= 1
 task_2_shift_4: x[2,4] >= 1
 task_3_shift_0: x[3,0] >= 1
 task_3_shift_1: x[3,1] >= 1
 task_3_shift_2: x[3,2] >= 1
 task_3_shift_3: x[3,3] >= 1
 task_3_shift_4: x[3,4] >= 1
 task_4_shift_0: x[4,0] >= 1
 task_4_shift_1: x[4,1] >= 1
 task_4_shift_2: x[4,2] >= 1
 task_4_shift_3: x[4,3] >= 1
 task_4_shift_4: x[4,4] >= 1
 task_5_shift_0: x[5,0] >= 1
 task_5_shift_1: x[5,1] >= 1
 task_5_shift_2: x[5,2] >= 1
 task_5_shift_3: x[5,3] >= 1
 task_5_shift_4: x[5,4] >= 1
 task_6_shift_0: x[6,0] >= 1
 task_6_shift_1: x[6,1] >= 1
 task_6_shift_2: x[6,2] >= 1
 task_6_shift_3: x[6,3] >= 1
 task_6_shift_4: x[6,4] >= 1
 task_7_shift_0: x[7,0] >= 1
 task_7_shift_1: x[7,1] >= 1
 task_7_shift_2: x[7,2] >= 1
 task_7_shift_3: x[7,3] >= 1
 task_7_shift_4: x[7,4] >= 1
 task_8_shift_0: x[8,0] >= 1
 task_8_shift_1: x[8,1] >= 1
 task_8_shift_2: x[8,2] >= 1
 task_8_shift_3: x[8,3] >= 1
 task_8_shift_4: x[8,4] >= 1
 task_9_shift_0: x[9,0] >= 1
 task_9_shift_1: x[9,1] >= 1
 task_9_shift_2: x[9,2] >= 1
 task_9_shift_3: x[9,3] >= 1
 task_9_shift_4: x[9,4] >= 1
 shift_0_availability: x[0,0] + x[1,0] + x[2,0] + x[3,0] + x[4,0] + x[5,0]
   + x[6,0] + x[7,0] + x[8,0] + x[9,0] <= 100
 shift_1_availability: x[0,1] + x[1,1] + x[2,1] + x[3,1] + x[4,1] + x[5,1]
   + x[6,1] + x[7,1] + x[8,1] + x[9,1] <= 100
 shift_2_availability: x[0,2] + x[1,2] + x[2,2] + x[3,2] + x[4,2] + x[5,2]
   + x[6,2] + x[7,2] + x[8,2] + x[9,2] <= 100
 shift_3_availability: x[0,3] + x[1,3] + x[2,3] + x[3,3] + x[4,3] + x[5,3]
   + x[6,3] + x[7,3] + x[8,3] + x[9,3] <= 100
 shift_4_availability: x[0,4] + x[1,4] + x[2,4] + x[3,4] + x[4,4] + x[5,4]
   + x[6,4] + x[7,4] + x[8,4] + x[9,4] <= 100
 shift_0_overtime: x[0,0] + x[1,0] + x[2,0] + x[3,0] + x[4,0] + x[5,0]
   + x[6,0] + x[7,0] + x[8,0] + x[9,0] <= 1e+06
 shift_1_overtime: x[0,1] + x[1,1] + x[2,1] + x[3,1] + x[4,1] + x[5,1]
   + x[6,1] + x[7,1] + x[8,1] + x[9,1] <= 1e+06
 shift_2_overtime: x[0,2] + x[1,2] + x[2,2] + x[3,2] + x[4,2] + x[5,2]
   + x[6,2] + x[7,2] + x[8,2] + x[9,2] <= 1e+06
 shift_3_overtime: x[0,3] + x[1,3] + x[2,3] + x[3,3] + x[4,3] + x[5,3]
   + x[6,3] + x[7,3] + x[8,3] + x[9,3] <= 1e+06
 shift_4_overtime: x[0,4] + x[1,4] + x[2,4] + x[3,4] + x[4,4] + x[5,4]
   + x[6,4] + x[7,4] + x[8,4] + x[9,4] <= 1e+06
Bounds
End
